1153.0 13485.0 3163.0 
1138.0 13651.0 3595.0 
1138.0 13681.0 3180.0 
1250.0 13329.0 2950.0 
1282.0 13335.0 2822.0 
1141.0 13211.0 3417.0 
1141.0 13211.0 3417.0 
1202.0 13385.0 2941.0 
1146.0 13649.0 3228.0 
1252.0 13364.0 2851.0 
1129.0 13934.0 3956.0 
1184.0 13169.0 2974.0 
1156.0 13462.0 3340.0 
1159.0 13526.0 3071.0 
1219.0 13459.0 2774.0 
1182.0 13272.0 3052.0 
1142.0 13507.0 3267.0 
1121.0 13946.0 4012.0 
1249.0 13458.0 2824.0 
1138.0 13599.0 3693.0 
1230.0 13334.0 2893.0 
1121.0 13999.0 3934.0 
1184.0 13270.0 2971.0 
1283.0 13458.0 2741.0 
1243.0 13378.0 2865.0 
1282.0 13335.0 2822.0 
1207.0 13380.0 2882.0 
